
Gurobi 9.5.1 (linux64) logging started Wed Mar  9 18:04:24 2022

Set parameter LogFile to value "../results/logs/log_2022_03_09_17_57.csv_4_80.log"
Set parameter Method to value 3
Gurobi Optimizer version 9.5.1 build v9.5.1rc2 (linux64)
Thread count: 8 physical cores, 8 logical processors, using up to 8 threads
Optimize a model with 2962 rows, 9882 columns and 30211 nonzeros
Model fingerprint: 0x0a55157a
Variable types: 4941 continuous, 4941 integer (4941 binary)
Coefficient statistics:
  Matrix range     [1e+00, 4e+00]
  Objective range  [1e+00, 1e+00]
  Bounds range     [1e+00, 1e+00]
  RHS range        [1e+00, 8e+01]
Found heuristic solution: objective 36.0000000
Presolve removed 1475 rows and 7622 columns
Presolve time: 0.02s
Presolved: 1487 rows, 2260 columns, 8333 nonzeros
Variable types: 1293 continuous, 967 integer (941 binary)
Found heuristic solution: objective 60.0000000

Concurrent LP optimizer: primal simplex, dual simplex, and barrier
Showing barrier log only...

Root barrier log...

Ordering time: 0.00s

Barrier statistics:
 AA' NZ     : 6.354e+03
 Factor NZ  : 1.841e+04 (roughly 2 MB of memory)
 Factor Ops : 2.649e+05 (less than 1 second per iteration)
 Threads    : 1

                  Objective                Residual
Iter       Primal          Dual         Primal    Dual     Compl     Time
   0   7.48772819e+03  9.45341042e+03  3.38e+03 7.75e-01  4.63e+01     0s
   1   2.99341039e+03  1.09331176e+04  1.32e+03 7.11e-15  1.80e+01     0s
   2   4.24809007e+02  6.90294680e+03  5.44e+01 1.07e-14  1.68e+00     0s
   3   2.72941449e+02  1.20969885e+03  4.53e+00 4.00e-15  1.93e-01     0s
   4   2.97508456e+02  5.48685213e+02  4.49e-01 4.22e-15  4.46e-02     0s
   5   3.22225116e+02  4.60258386e+02  1.79e-01 4.14e-15  2.41e-02     0s
   6   3.39406340e+02  4.12081860e+02  5.02e-02 2.36e-15  1.25e-02     0s
   7   3.46117298e+02  3.89098342e+02  3.03e-02 1.61e-15  7.41e-03     0s
   8   3.51751893e+02  3.80329368e+02  1.49e-02 2.26e-15  4.91e-03     0s
   9   3.54488014e+02  3.72133908e+02  8.73e-03 1.33e-15  3.03e-03     0s
  10   3.56440891e+02  3.67102720e+02  4.96e-03 8.88e-16  1.83e-03     0s
  11   3.57716796e+02  3.61726747e+02  2.67e-03 1.83e-15  6.90e-04     0s
  12   3.58111204e+02  3.61189221e+02  1.86e-03 1.93e-15  5.29e-04     0s
  13   3.58797666e+02  3.60177378e+02  6.87e-04 1.09e-15  2.37e-04     0s
  14   3.59214495e+02  3.59397552e+02  1.01e-04 1.78e-15  3.15e-05     0s
  15   3.59248641e+02  3.59327573e+02  5.39e-05 2.06e-15  1.36e-05     0s
  16   3.59283389e+02  3.59313715e+02  1.78e-05 1.94e-15  5.21e-06     0s
  17   3.59293629e+02  3.59302615e+02  7.63e-06 2.24e-15  1.55e-06     0s
  18   3.59301414e+02  3.59301507e+02  0.00e+00 1.67e-15  1.58e-08     0s
  19   3.59301462e+02  3.59301462e+02  2.47e-13 1.32e-15  1.75e-14     0s

Barrier solved model in 19 iterations and 0.05 seconds (0.05 work units)
Optimal objective 3.59301462e+02


Solved with barrier

Root relaxation: objective 3.593015e+02, 282 iterations, 0.03 seconds (0.02 work units)

    Nodes    |    Current Node    |     Objective Bounds      |     Work
 Expl Unexpl |  Obj  Depth IntInf | Incumbent    BestBd   Gap | It/Node Time

     0     0  359.30146    0  623   60.00000  359.30146   499%     -    0s
H    0     0                     102.0000000  359.30146   252%     -    0s
     0     0  232.94148    0  323  102.00000  232.94148   128%     -    0s
     0     0  226.12563    0  294  102.00000  226.12563   122%     -    0s
     0     0  224.88476    0  296  102.00000  224.88476   120%     -    0s
     0     0  224.69179    0  281  102.00000  224.69179   120%     -    0s
     0     0  224.65451    0  294  102.00000  224.65451   120%     -    0s
     0     0  207.93426    0  247  102.00000  207.93426   104%     -    0s
     0     0  204.39732    0  275  102.00000  204.39732   100%     -    0s
     0     0  203.88373    0  257  102.00000  203.88373   100%     -    0s
     0     0  203.70046    0  250  102.00000  203.70046   100%     -    0s
H    0     0                     109.0000000  198.98887  82.6%     -    0s
     0     0  198.98887    0  202  109.00000  198.98887  82.6%     -    0s
     0     0  197.66372    0  248  109.00000  197.66372  81.3%     -    0s
     0     0  197.31447    0  212  109.00000  197.31447  81.0%     -    0s
     0     0  197.24297    0  209  109.00000  197.24297  81.0%     -    0s
     0     0  195.20916    0  195  109.00000  195.20916  79.1%     -    0s
     0     0  194.71505    0  204  109.00000  194.71505  78.6%     -    0s
     0     0  194.58131    0  222  109.00000  194.58131  78.5%     -    0s
     0     0  193.66151    0  191  109.00000  193.66151  77.7%     -    0s
     0     0  193.66151    0  191  109.00000  193.66151  77.7%     -    0s
     0     2  193.66151    0  191  109.00000  193.66151  77.7%     -    0s
H   31    40                     110.0000000  192.34477  74.9%   123    0s
H   34    40                     111.0000000  192.34477  73.3%   121    0s
H  128   136                     112.0000000  192.34084  71.7%  79.1    1s
H  129   136                     116.0000000  192.34084  65.8%  78.5    1s
H  133   136                     126.0000000  192.34084  52.7%  79.8    1s
H  134   136                     128.0000000  192.34084  50.3%  79.4    1s
H  508   517                     131.0000000  192.34084  46.8%  51.7    1s
H  512   517                     133.0000000  192.34084  44.6%  51.5    1s
H  856   732                     180.0000000  192.34084  6.86%  48.2    1s
H  920   689                     182.0000000  192.30301  5.66%  47.2    1s
H 1451   620                     186.0000000  192.22417  3.35%  47.6    2s
  1528   669  187.64663   13   94  186.00000  187.64663  0.89%  49.8    5s

Cutting planes:
  Gomory: 19
  Lift-and-project: 6
  Cover: 3
  Implied bound: 1
  Projected implied bound: 1
  MIR: 34
  Flow cover: 83
  RLT: 5
  Relax-and-lift: 5

Explored 1636 nodes (93004 simplex iterations) in 6.60 seconds (6.04 work units)
Thread count was 8 (of 8 available processors)

Solution count 10: 186 182 180 ... 111

Optimal solution found (tolerance 1.00e-04)
Best objective 1.860000000000e+02, best bound 1.860000000000e+02, gap 0.0000%
